(set-option :produce-models true)
(set-logic all)
(declare-fun s0 () (array int bool))
(declare-fun s1 () (array int bool))
(declare-fun s2 () (array int bool))
(assert (distinct s0 s1))
(define-fun s4 () (array int bool) ((_ map not) s0))
(define-fun s5 () (array int bool) ((_ map not) s1))
(define-fun s6 () (array int bool) ((_ map or) s4 s5))
(assert (= s2 s6))
(check-sat)